
Gurobi 10.0.2 (win64) logging started Mon Jul 10 13:23:48 2023

Set parameter LogFile to value "Outputs/Logfiles/model_moo(Jul 10,1323).log"
Gurobi Optimizer version 10.0.2 build v10.0.2rc0 (win64)

CPU model: Intel(R) Core(TM) i5-8265U CPU @ 1.60GHz, instruction set [SSE2|AVX|AVX2]
Thread count: 4 physical cores, 8 logical processors, using up to 8 threads

Optimize a model with 284 rows, 220 columns and 504 nonzeros
Model fingerprint: 0x968b1d68
Variable types: 162 continuous, 58 integer (58 binary)
Coefficient statistics:
  Matrix range     [1e+00, 4e+23]
  Objective range  [2e-02, 2e+01]
  Bounds range     [1e+00, 1e+00]
  RHS range        [1e+00, 1e+12]
Warning: Model contains large matrix coefficient range
Warning: Model contains large rhs
         Consider reformulating model or setting NumericFocus parameter
         to avoid numerical issues.

---------------------------------------------------------------------------
Multi-objectives: starting optimization with 2 objectives ... 
---------------------------------------------------------------------------

Multi-objectives: applying initial presolve ...
---------------------------------------------------------------------------

Presolve removed 220 rows and 117 columns
Presolve time: 0.03s
Presolved: 64 rows and 103 columns
---------------------------------------------------------------------------

Multi-objectives: optimize objective 1 (objective_re_1) ...
---------------------------------------------------------------------------

Found heuristic solution: objective 0.0000000
Found heuristic solution: objective -601.9289976

Explored 0 nodes (0 simplex iterations) in 0.13 seconds (0.00 work units)
Thread count was 1 (of 8 available processors)

Solution count 1: -601.929 
No other solutions better than -601.929

Optimal solution found (tolerance 1.00e-04)
Best objective -6.019289976106e+02, best bound -6.019289976106e+02, gap 0.0000%
---------------------------------------------------------------------------

Multi-objectives: optimize objective 2 (objective_cost_2) ...
---------------------------------------------------------------------------


Loaded user MIP start with objective -3515.23

Presolve removed 65 rows and 103 columns
Presolve time: 0.01s
Presolve: All rows and columns removed

Explored 0 nodes (0 simplex iterations) in 0.21 seconds (0.00 work units)
Thread count was 1 (of 8 available processors)

Solution count 2: -3531.08 -3515.23 
No other solutions better than -3531.08

Optimal solution found (tolerance 1.00e-04)
Best objective -3.531084035714e+03, best bound -3.531084035714e+03, gap 0.0000%

---------------------------------------------------------------------------
Multi-objectives: solved in 0.24 seconds (0.00 work units), solution count 2


    Variable            X 
-------------------------
cover[o53,s9]            1 
cover[o178,s200]            1 
cover[o203,s300]            1 
cover[o7,s300]            1 
cover[o221,s200]            1 
cover[o64,s9]            1 
cover[o25,s200]            1 
cover[o94,s300]            1 
cover[o208,s6]            1 
cover[o86,s300]            1 
cover[o93,s300]            1 
cover[o6,s300]            1 
cover[o10,s300]            1 
cover[o169,s200]            1 
cover[o185,s200]            1 
cover[o87,s300]            1 
cover[o24,s200]            1 
cover[o190,s9]            1 
cover[o162,s6]            1 
cover[o157,s6]            1 
cover[o175,s200]            1 
cover[o3,s9]            1 
cover[o28,s200]            1 
cover[o45,s9]            1 
cover[o27,s200]            1 
cover[o219,s200]            1 
cover[o212,s6]            1 
cover[o160,s6]            1 
cover[o191,s9]            1 
cover[o184,s200]            1 
cover[o37,s200]            1 
cover[o83,s300]            1 
cover[o155,s6]            1 
cover[o91,s300]            1 
cover[o183,s200]            1 
cover[o181,s200]            1 
cover[o159,s6]            1 
cover[o158,s6]            1 
cover[o153,s6]            1 
cover[o44,s300]            1 
cover[o59,s9]            1 
cover[o90,s300]            1 
cover[o79,s300]            1 
cover[o161,s6]            1 
cover[o163,s6]            1 
cover[o22,s200]            1 
cover[o187,s200]            1 
cover[o84,s300]            1 
cover[o198,s200]            1 
cover[o82,s300]            1 
cover[o220,s200]            1 
cover[o207,s6]            1 
cover[o192,s200]            1 
  select[s9]            1 
select[s200]            1 
  select[s6]            1 
select[s300]            1 
deploy[o178,s200,c]          110 
deploy[o203,s300,i]            7 
deploy[o7,s300,c]           31 
deploy[o221,s200,i]          157 
deploy[o64,s9,i]           37 
deploy[o25,s200,c]           31 
deploy[o208,s6,i]          157 
deploy[o6,s300,i]          157 
deploy[o10,s300,i]          157 
deploy[o169,s200,i]           37 
deploy[o185,s200,i]          157 
deploy[o87,s300,c]          110 
deploy[o24,s200,i]            7 
deploy[o162,s6,i]            7 
deploy[o157,s6,i]            7 
deploy[o175,s200,i]           37 
deploy[o3,s9,c]           31 
deploy[o28,s200,c]           31 
deploy[o27,s200,c]           31 
deploy[o219,s200,i]            7 
deploy[o212,s6,c]            5 
deploy[o214,s6,c]           31 
deploy[o160,s6,i]           37 
deploy[o184,s200,c]           31 
deploy[o37,s200,c]            5 
deploy[o83,s300,i]           37 
deploy[o91,s300,i]            7 
deploy[o183,s200,i]            7 
deploy[o181,s200,i]          157 
deploy[o158,s6,i]          157 
deploy[o44,s300,i]           37 
deploy[o59,s9,i]            7 
deploy[o90,s300,c]           31 
deploy[o161,s6,i]           37 
deploy[o163,s6,i]          157 
deploy[o187,s200,c]            5 
deploy[o220,s200,i]           37 
deploy[o207,s6,c]            5 
deploy[o192,s200,i]            7 
